data/lp_files/pEFS/32_1.lp
\ Model foo
\ LP format - for model browsing. Use MPS format to capture full model detail.
Minimize
  z
Subject To
 allocateEach[1]: x[1,1] + x[2,1] = 1
 allocateEach[2]: x[1,2] + x[2,2] = 1
 allocateEach[3]: x[1,3] + x[2,3] = 1
 allocateEach[4]: x[1,4] + x[2,4] = 1
 allocateEach[5]: x[1,5] + x[2,5] = 1
 allocateEach[6]: x[1,6] + x[2,6] = 1
 allocateEach[7]: x[1,7] + x[2,7] = 1
 allocateEach[8]: x[1,8] + x[2,8] = 1
 allocateEach[9]: x[1,9] + x[2,9] = 1
 allocateEach[10]: x[1,10] + x[2,10] = 1
 allocateEach[11]: x[1,11] + x[2,11] = 1
 allocateEach[12]: x[1,12] + x[2,12] = 1
 allocateAllCash: cashProportion[1] + cashProportion[2] = 1
 findWorstP[1,2]: z + 0.0137972902122023 cashProportion[1]
   - 0.0137972902122023 cashProportion[2] + 0.1303843925053119 x[1,1]
   + 0.1119512127818097 x[1,2] + 0.1044868787770082 x[1,3]
   + 0.0712216120753884 x[1,4] + 0.1105162945997406 x[1,5]
   + 0.1051353514169817 x[1,6] + 0.00823698225668479 x[1,7]
   + 0.0428129915284638 x[1,8] + 0.1371174701288667 x[1,9]
   + 0.0882750627776705 x[1,10] + 0.0754849747509589 x[1,11]
   + 5.7948618891249756e-04 x[1,12] - 0.1303843925053119 x[2,1]
   - 0.1119512127818097 x[2,2] - 0.1044868787770082 x[2,3]
   - 0.0712216120753884 x[2,4] - 0.1105162945997406 x[2,5]
   - 0.1051353514169817 x[2,6] - 0.00823698225668479 x[2,7]
   - 0.0428129915284638 x[2,8] - 0.1371174701288667 x[2,9]
   - 0.0882750627776705 x[2,10] - 0.0754849747509589 x[2,11]
   - 5.7948618891249756e-04 x[2,12] >= 0
 findWorstP[2,1]: z - 0.0142255604870832 cashProportion[1]
   + 0.0142255604870832 cashProportion[2] - 0.1160378968931376 x[1,1]
   - 0.1417292591328098 x[1,2] - 0.0445971321270058 x[1,3]
   - 0.0762916808922272 x[1,4] - 0.1416296802094003 x[1,5]
   - 0.00991521565949698 x[1,6] - 0.0189484465687948 x[1,7]
   - 0.0124046887447365 x[1,8] - 0.0946853306020257 x[1,9]
   - 0.072849095254353 x[1,10] - 0.130306134061682 x[1,11]
   - 0.1263798793672471 x[1,12] + 0.1160378968931376 x[2,1]
   + 0.1417292591328098 x[2,2] + 0.0445971321270058 x[2,3]
   + 0.0762916808922272 x[2,4] + 0.1416296802094003 x[2,5]
   + 0.00991521565949698 x[2,6] + 0.0189484465687948 x[2,7]
   + 0.0124046887447365 x[2,8] + 0.0946853306020257 x[2,9]
   + 0.072849095254353 x[2,10] + 0.130306134061682 x[2,11]
   + 0.1263798793672471 x[2,12] >= 0
Bounds
 z <= 1
 -infinity <= cashProportion[1] <= 1
 -infinity <= cashProportion[2] <= 1
Binaries
 x[1,1] x[1,2] x[1,3] x[1,4] x[1,5] x[1,6] x[1,7] x[1,8] x[1,9] x[1,10]
 x[1,11] x[1,12] x[2,1] x[2,2] x[2,3] x[2,4] x[2,5] x[2,6] x[2,7] x[2,8]
 x[2,9] x[2,10] x[2,11] x[2,12]
End
