data/mps_files/pEFS/32_1.mps
NAME foo
ROWS
 N  OBJ
 E  allocateEach[1]
 E  allocateEach[2]
 E  allocateEach[3]
 E  allocateEach[4]
 E  allocateEach[5]
 E  allocateEach[6]
 E  allocateEach[7]
 E  allocateEach[8]
 E  allocateEach[9]
 E  allocateEach[10]
 E  allocateEach[11]
 E  allocateEach[12]
 E  allocateAllCash
 G  findWorstP[1,2]
 G  findWorstP[2,1]
COLUMNS
    z         OBJ       1
    z         findWorstP[1,2]  1
    z         findWorstP[2,1]  1
    cashProportion[1]  allocateAllCash  1
    cashProportion[1]  findWorstP[1,2]  1.3797290212202324e-02
    cashProportion[1]  findWorstP[2,1]  -1.4225560487083191e-02
    cashProportion[2]  allocateAllCash  1
    cashProportion[2]  findWorstP[1,2]  -1.3797290212202324e-02
    cashProportion[2]  findWorstP[2,1]  1.4225560487083191e-02
    MARKER    'MARKER'                 'INTORG'
    x[1,1]    allocateEach[1]  1
    x[1,1]    findWorstP[1,2]  1.3038439250531195e-01
    x[1,1]    findWorstP[2,1]  -1.1603789689313759e-01
    x[1,2]    allocateEach[2]  1
    x[1,2]    findWorstP[1,2]  1.1195121278180965e-01
    x[1,2]    findWorstP[2,1]  -1.4172925913280984e-01
    x[1,3]    allocateEach[3]  1
    x[1,3]    findWorstP[1,2]  1.0448687877700819e-01
    x[1,3]    findWorstP[2,1]  -4.4597132127005806e-02
    x[1,4]    allocateEach[4]  1
    x[1,4]    findWorstP[1,2]  0.0712216120753884
    x[1,4]    findWorstP[2,1]  -7.6291680892227154e-02
    x[1,5]    allocateEach[5]  1
    x[1,5]    findWorstP[1,2]  1.1051629459974062e-01
    x[1,5]    findWorstP[2,1]  -1.4162968020940025e-01
    x[1,6]    allocateEach[6]  1
    x[1,6]    findWorstP[1,2]  1.0513535141698170e-01
    x[1,6]    findWorstP[2,1]  -9.9152156594969846e-03
    x[1,7]    allocateEach[7]  1
    x[1,7]    findWorstP[1,2]  8.2369822566847866e-03
    x[1,7]    findWorstP[2,1]  -1.8948446568794814e-02
    x[1,8]    allocateEach[8]  1
    x[1,8]    findWorstP[1,2]  4.2812991528463809e-02
    x[1,8]    findWorstP[2,1]  -1.2404688744736542e-02
    x[1,9]    allocateEach[9]  1
    x[1,9]    findWorstP[1,2]  1.3711747012886669e-01
    x[1,9]    findWorstP[2,1]  -9.4685330602025719e-02
    x[1,10]   allocateEach[10]  1
    x[1,10]   findWorstP[1,2]  8.8275062777670471e-02
    x[1,10]   findWorstP[2,1]  -7.2849095254353027e-02
    x[1,11]   allocateEach[11]  1
    x[1,11]   findWorstP[1,2]  7.5484974750958916e-02
    x[1,11]   findWorstP[2,1]  -1.3030613406168204e-01
    x[1,12]   allocateEach[12]  1
    x[1,12]   findWorstP[1,2]  5.7948618891249756e-04
    x[1,12]   findWorstP[2,1]  -1.2637987936724707e-01
    x[2,1]    allocateEach[1]  1
    x[2,1]    findWorstP[1,2]  -1.3038439250531195e-01
    x[2,1]    findWorstP[2,1]  1.1603789689313759e-01
    x[2,2]    allocateEach[2]  1
    x[2,2]    findWorstP[1,2]  -1.1195121278180965e-01
    x[2,2]    findWorstP[2,1]  1.4172925913280984e-01
    x[2,3]    allocateEach[3]  1
    x[2,3]    findWorstP[1,2]  -1.0448687877700819e-01
    x[2,3]    findWorstP[2,1]  4.4597132127005806e-02
    x[2,4]    allocateEach[4]  1
    x[2,4]    findWorstP[1,2]  -0.0712216120753884
    x[2,4]    findWorstP[2,1]  7.6291680892227154e-02
    x[2,5]    allocateEach[5]  1
    x[2,5]    findWorstP[1,2]  -1.1051629459974062e-01
    x[2,5]    findWorstP[2,1]  1.4162968020940025e-01
    x[2,6]    allocateEach[6]  1
    x[2,6]    findWorstP[1,2]  -1.0513535141698170e-01
    x[2,6]    findWorstP[2,1]  9.9152156594969846e-03
    x[2,7]    allocateEach[7]  1
    x[2,7]    findWorstP[1,2]  -8.2369822566847866e-03
    x[2,7]    findWorstP[2,1]  1.8948446568794814e-02
    x[2,8]    allocateEach[8]  1
    x[2,8]    findWorstP[1,2]  -4.2812991528463809e-02
    x[2,8]    findWorstP[2,1]  1.2404688744736542e-02
    x[2,9]    allocateEach[9]  1
    x[2,9]    findWorstP[1,2]  -1.3711747012886669e-01
    x[2,9]    findWorstP[2,1]  9.4685330602025719e-02
    x[2,10]   allocateEach[10]  1
    x[2,10]   findWorstP[1,2]  -8.8275062777670471e-02
    x[2,10]   findWorstP[2,1]  7.2849095254353027e-02
    x[2,11]   allocateEach[11]  1
    x[2,11]   findWorstP[1,2]  -7.5484974750958916e-02
    x[2,11]   findWorstP[2,1]  1.3030613406168204e-01
    x[2,12]   allocateEach[12]  1
    x[2,12]   findWorstP[1,2]  -5.7948618891249756e-04
    x[2,12]   findWorstP[2,1]  1.2637987936724707e-01
    MARKER    'MARKER'                 'INTEND'
RHS
    RHS1      allocateEach[1]  1
    RHS1      allocateEach[2]  1
    RHS1      allocateEach[3]  1
    RHS1      allocateEach[4]  1
    RHS1      allocateEach[5]  1
    RHS1      allocateEach[6]  1
    RHS1      allocateEach[7]  1
    RHS1      allocateEach[8]  1
    RHS1      allocateEach[9]  1
    RHS1      allocateEach[10]  1
    RHS1      allocateEach[11]  1
    RHS1      allocateEach[12]  1
    RHS1      allocateAllCash  1
BOUNDS
 UP BND1      z         1
 MI BND1      cashProportion[1]
 UP BND1      cashProportion[1]  1
 MI BND1      cashProportion[2]
 UP BND1      cashProportion[2]  1
 BV BND1      x[1,1]  
 BV BND1      x[1,2]  
 BV BND1      x[1,3]  
 BV BND1      x[1,4]  
 BV BND1      x[1,5]  
 BV BND1      x[1,6]  
 BV BND1      x[1,7]  
 BV BND1      x[1,8]  
 BV BND1      x[1,9]  
 BV BND1      x[1,10] 
 BV BND1      x[1,11] 
 BV BND1      x[1,12] 
 BV BND1      x[2,1]  
 BV BND1      x[2,2]  
 BV BND1      x[2,3]  
 BV BND1      x[2,4]  
 BV BND1      x[2,5]  
 BV BND1      x[2,6]  
 BV BND1      x[2,7]  
 BV BND1      x[2,8]  
 BV BND1      x[2,9]  
 BV BND1      x[2,10] 
 BV BND1      x[2,11] 
 BV BND1      x[2,12] 
ENDATA
